c colouring generated by benchmark framework
p edge 206 3540
v 1 1
v 2 18
v 3 16
v 4 8
v 5 4
v 6 11
v 7 21
v 8 28
v 9 12
v 10 24
v 11 30
v 12 29
v 13 25
v 14 7
v 15 2
v 16 0
v 17 22
v 18 5
v 19 27
v 20 26
v 21 16
v 22 8
v 23 23
v 24 15
v 25 14
v 26 4
v 27 24
v 28 1
v 29 0
v 30 12
v 31 6
v 32 7
v 33 17
v 34 24
v 35 20
v 36 20
v 37 19
v 38 30
v 39 1
v 40 13
v 41 5
v 42 27
v 43 3
v 44 2
v 45 10
v 46 26
v 47 3
v 48 15
v 49 21
v 50 23
v 51 6
v 52 17
v 53 10
v 54 14
v 55 19
v 56 23
v 57 15
v 58 25
v 59 9
v 60 23
v 61 9
v 62 2
v 63 2
v 64 2
v 65 2
v 66 2
v 67 9
v 68 17
v 69 3
v 70 3
v 71 9
v 72 3
v 73 3
v 74 3
v 75 19
v 76 19
v 77 3
v 78 6
v 79 10
v 80 3
v 81 11
v 82 27
v 83 13
v 84 19
v 85 13
v 86 29
v 87 26
v 88 28
v 89 5
v 90 23
v 91 5
v 92 30
v 93 18
v 94 0
v 95 26
v 96 22
v 97 19
v 98 10
v 99 28
v 100 11
v 101 15
v 102 9
v 103 13
v 104 9
v 105 9
v 106 13
v 107 18
v 108 22
v 109 29
v 110 13
v 111 1
v 112 7
v 113 9
v 114 22
v 115 18
v 116 13
v 117 19
v 118 13
v 119 25
v 120 13
v 121 13
v 122 19
v 123 19
v 124 3
v 125 17
v 126 6
v 127 15
v 128 14
v 129 13
v 130 10
v 131 17
v 132 9
v 133 6
v 134 5
v 135 3
v 136 13
v 137 21
v 138 11
v 139 10
v 140 2
v 141 19
v 142 19
v 143 19
v 144 19
v 145 22
v 146 0
v 147 6
v 148 6
v 149 9
v 150 13
v 151 9
v 152 28
v 153 26
v 154 11
v 155 4
v 156 7
v 157 19
v 158 23
v 159 19
v 160 19
v 161 17
v 162 15
v 163 15
v 164 25
v 165 15
v 166 23
v 167 27
v 168 17
v 169 17
v 170 19
v 171 19
v 172 19
v 173 23
v 174 23
v 175 19
v 176 17
v 177 17
v 178 10
v 179 17
v 180 10
v 181 10
v 182 4
v 183 19
v 184 28
v 185 19
v 186 17
v 187 26
v 188 15
v 189 23
v 190 23
v 191 27
v 192 23
v 193 23
v 194 27
v 195 26
v 196 19
v 197 19
v 198 15
v 199 19
v 200 17
v 201 17
v 202 19
v 203 15
v 204 30
v 205 13
v 206 9
